16  460303
1   5   1    9    23    43    55    
2   5   2    11    24    44    60    
3   5   3    12    27    45    65    
4   5   4    14    32    46    67    
5   6   51    71    77    37    64    53    
6   5   5    16    36    47    70    
7   5   61    68    78    48    79    
8   5   42    73    75    10    80    
9   6   41    52    56    57    59    35    
10   6   26    31    8    17    20    15    
11   7   76    62    63    18    58    29    30    
12   4   6    19    38    49    
13   4   22    69    39    50    
14   4   66    72    74    28    
15   4   13    33    34    25    
16   4   7    21    40    54    

